
Gurobi 11.0.3 (linux64) logging started Fri Nov 22 14:26:07 2024

Set parameter LogFile to value "/home/yihong/Coding/OR_SUC/SUC_results_bigM100000_thread4/case24_ieee_rts_theta0.5_epsilon0.025_gurobi_seed430000_num_gen100_N_WDR100_load_scaling_factor1_proposed_T12quadra_cost.txt"
Set parameter TimeLimit to value 3600
Gurobi Optimizer version 11.0.3 build v11.0.3rc0 (linux64 - "Ubuntu 20.04.6 LTS")

CPU model: AMD EPYC 7532 32-Core Processor, instruction set [SSE2|AVX|AVX2]
Thread count: 64 physical cores, 128 logical processors, using up to 4 threads

Optimize a model with 25722 rows, 14981 columns and 353498 nonzeros
Model fingerprint: 0x7e2868d4
Model has 1200 quadratic constraints
Variable types: 13781 continuous, 1200 integer (1200 binary)
Coefficient statistics:
  Matrix range     [3e-04, 3e+03]
  QMatrix range    [2e-03, 8e-03]
  QLMatrix range   [8e-03, 6e+01]
  Objective range  [1e+00, 1e+00]
  Bounds range     [1e+00, 1e+00]
  RHS range        [1e+00, 9e+03]
Presolve removed 20992 rows and 6620 columns
Presolve time: 0.10s
Presolved: 4730 rows, 8361 columns, 28177 nonzeros
Presolved model has 1200 quadratic constraint(s)
Variable types: 7161 continuous, 1200 integer (1200 binary)

Root relaxation: objective 3.707047e+04, 4500 iterations, 0.07 seconds (0.10 work units)

    Nodes    |    Current Node    |     Objective Bounds      |     Work
 Expl Unexpl |  Obj  Depth IntInf | Incumbent    BestBd   Gap | It/Node Time

     0     0 37070.4659    0   12          - 37070.4659      -     -    0s
     0     0 117075.618    0  464          - 117075.618      -     -    0s
     0     0 117091.770    0  464          - 117091.770      -     -    0s
     0     0 241835.399    0  308          - 241835.399      -     -    0s
     0     0 242036.593    0  272          - 242036.593      -     -    0s
     0     0 242224.573    0  168          - 242224.573      -     -    0s
     0     0 242228.292    0  168          - 242228.292      -     -    0s
     0     0 242228.292    0  168          - 242228.292      -     -    0s
     0     0 242228.292    0  168          - 242228.292      -     -    0s
     0     2 242228.292    0  168          - 242228.292      -     -    1s
H  270   283                    242322.46555 242238.475  0.03%  17.9    1s
*  270   283              76    242322.46555 242238.475  0.03%  17.9    1s

Cutting planes:
  Gomory: 48
  Implied bound: 277
  MIR: 20
  Flow cover: 95

Explored 298 nodes (17180 simplex iterations) in 2.18 seconds (2.63 work units)
Thread count was 4 (of 128 available processors)

Solution count 2: 242322 242322 

Optimal solution found (tolerance 1.00e-03)
Warning: max constraint violation (2.8364e-07) exceeds tolerance
Best objective 2.423224655504e+05, best bound 2.422384754793e+05, gap 0.0347%
